58
9
0 10 11 12 13 17 18 19 20 21 23 25 31 34 35 37 38 39 43 44 48 49 50 52 56 57
1 9 12 13 16 18 20 23 25 26 28 32 35 37 38 39 41 43 47 48 50 57
2 9 11 13 15 16 17 18 19 21 23 26 29 31 32 35 37 38 39 40 43 47 48 49 50 54 55 56 57
3 10 13 15 16 17 20 25 26 29 30 32 34 39 40 41 43 44 47 48 50 51 57
4 10 11 12 15 17 18 21 25 26 27 30 31 32 35 36 38 44 47 48 49 53 54 57
5 9 10 15 18 19 20 23 31 49
6 11 13 14 15 17 24 25 29 33 36 37 39 43 45 47 50 51 52 55 57
7 19 20 23 41 43 46 48
8 22 26 42 45 50
